write_iter3.lp
\ LP format - for model browsing. Use MPS format to capture full model detail.
Maximize
 
Subject To
 R0: 4 C1 + 2 C8 + 2 C11 + C30 + C32 = 1
 R1: C0 + 5 C3 + C16 + C19 + 2 C22 = 1
 R2: 5 C7 + C12 + C16 + C21 + 2 C22 = 1
 R3: C0 + C2 + C12 + C18 + 6 C22 = 1
 R4: C3 + 4 C5 + C7 + C13 + 2 C16 + C24 = 1
 R5: 4 C6 + C7 + 2 C20 + 2 C21 + C24 = 1
 R6: 4 C1 + C3 + 2 C19 + 2 C20 + C24 = 1
 R7: C1 + C5 + C6 + 3 C24 + C25 + 3 C32 = 1
 R8: 4 C6 + 2 C8 + 2 C9 + C31 + C32 = 1
 R9: 5 C8 + C9 + C10 + C11 + C15 + C26 = 1
 R10: 6 C9 + 2 C10 + C28 + C34 = 1
 R11: 2 C10 + 6 C11 + C29 + C34 >= 1
 R12: C2 + 5 C13 + C16 + C17 + 2 C22 = 1
 R13: C13 + 2 C17 + 2 C20 + C24 + 4 C25 = 1
 R14: 2 C8 + C14 + 2 C15 + 4 C25 + C32 = 1
 R15: 2 C10 + 6 C15 + C27 + C34 = 1
 R16: C0 + C4 + 2 C18 + 6 C19 = 1
 R17: C4 + C12 + 2 C18 + 6 C21 = 1
 R18: C0 + C2 + C4 + C12 + 6 C16 = 1
 R19: C4 + C16 + C17 + C19 + C21 + 5 C24 = 1
 R20: C2 + C4 + 6 C17 + 2 C18 = 1
 R21: C17 + C18 + C19 + 5 C20 + C21 + C22 = 1
 R22: C3 + C7 + C13 + C20 + 2 C22 + 4 C23 = 1
 R23: C5 + C6 + 3 C7 + 2 C23 + 3 C31 = 1
 R24: C1 + 3 C3 + C5 + 2 C23 + 3 C30 = 1
 R25: C1 + C6 + 3 C8 + 3 C20 + C23 + C25 = 1
 R26: C8 + C14 + 4 C23 + 2 C26 + C30 + C31 = 1
 R27: C5 + 3 C13 + 3 C14 + 2 C23 + C25 = 1
 R28: 4 C5 + C14 + C30 + C31 + C32 + 2 C33 = 1
 R29: 5 C14 + C15 + 2 C26 + C27 + C33 = 1
 R30: C10 + 6 C26 + C27 + C28 + C29 = 1
 R31: C11 + 2 C26 + C29 + 5 C30 + C33 = 1
 R32: C9 + 2 C26 + C28 + 5 C31 + C33 = 1
 R33: C9 + C11 + C15 + 5 C32 + C33 + C34 = 1
 R34: C27 + C28 + C29 + 6 C33 + C34 = 1
Bounds
 C0 <= 1
 C1 <= 1
 C2 <= 1
 C3 <= 1
 C4 <= 1
 C5 <= 1
 C6 <= 1
 C7 <= 1
 C8 <= 1
 C9 <= 1
 C10 = 0
 C11 <= 1
 C12 <= 1
 C13 <= 1
 C14 <= 1
 C15 <= 1
 C16 <= 1
 C17 <= 1
 C18 <= 1
 C19 <= 1
 C20 <= 1
 C21 <= 1
 C22 <= 1
 C23 <= 1
 C24 <= 1
 C25 <= 1
 C26 <= 1
 C27 <= 1
 C28 <= 1
 C29 <= 1
 C30 <= 1
 C31 <= 1
 C32 <= 1
 C33 <= 1
 C34 = 0
End
