write_iter3.mps
NAME
ROWS
 N  COST
 E  R0      
 E  R1      
 E  R2      
 E  R3      
 E  R4      
 E  R5      
 E  R6      
 E  R7      
 E  R8      
 E  R9      
 E  R10     
 G  R11     
 E  R12     
 E  R13     
 E  R14     
 E  R15     
 E  R16     
 E  R17     
 E  R18     
 E  R19     
 E  R20     
 E  R21     
 E  R22     
 E  R23     
 E  R24     
 E  R25     
 E  R26     
 E  R27     
 E  R28     
 E  R29     
 E  R30     
 E  R31     
 E  R32     
 E  R33     
 E  R34     
COLUMNS
    C0        R1        1
    C0        R3        1
    C0        R16       1
    C0        R18       1
    C1        R0        4
    C1        R6        4
    C1        R7        1
    C1        R24       1
    C1        R25       1
    C2        R3        1
    C2        R12       1
    C2        R18       1
    C2        R20       1
    C3        R1        5
    C3        R4        1
    C3        R6        1
    C3        R22       1
    C3        R24       3
    C4        R16       1
    C4        R17       1
    C4        R18       1
    C4        R19       1
    C4        R20       1
    C5        R4        4
    C5        R7        1
    C5        R23       1
    C5        R24       1
    C5        R27       1
    C5        R28       4
    C6        R5        4
    C6        R7        1
    C6        R8        4
    C6        R23       1
    C6        R25       1
    C7        R2        5
    C7        R4        1
    C7        R5        1
    C7        R22       1
    C7        R23       3
    C8        R0        2
    C8        R8        2
    C8        R9        5
    C8        R14       2
    C8        R25       3
    C8        R26       1
    C9        R8        2
    C9        R9        1
    C9        R10       6
    C9        R32       1
    C9        R33       1
    C10       R9        1
    C10       R10       2
    C10       R11       2
    C10       R15       2
    C10       R30       1
    C11       R0        2
    C11       R9        1
    C11       R11       6
    C11       R31       1
    C11       R33       1
    C12       R2        1
    C12       R3        1
    C12       R17       1
    C12       R18       1
    C13       R4        1
    C13       R12       5
    C13       R13       1
    C13       R22       1
    C13       R27       3
    C14       R14       1
    C14       R26       1
    C14       R27       3
    C14       R28       1
    C14       R29       5
    C15       R9        1
    C15       R14       2
    C15       R15       6
    C15       R29       1
    C15       R33       1
    C16       R1        1
    C16       R2        1
    C16       R4        2
    C16       R12       1
    C16       R18       6
    C16       R19       1
    C17       R12       1
    C17       R13       2
    C17       R19       1
    C17       R20       6
    C17       R21       1
    C18       R3        1
    C18       R16       2
    C18       R17       2
    C18       R20       2
    C18       R21       1
    C19       R1        1
    C19       R6        2
    C19       R16       6
    C19       R19       1
    C19       R21       1
    C20       R5        2
    C20       R6        2
    C20       R13       2
    C20       R21       5
    C20       R22       1
    C20       R25       3
    C21       R2        1
    C21       R5        2
    C21       R17       6
    C21       R19       1
    C21       R21       1
    C22       R1        2
    C22       R2        2
    C22       R3        6
    C22       R12       2
    C22       R21       1
    C22       R22       2
    C23       R22       4
    C23       R23       2
    C23       R24       2
    C23       R25       1
    C23       R26       4
    C23       R27       2
    C24       R4        1
    C24       R5        1
    C24       R6        1
    C24       R7        3
    C24       R13       1
    C24       R19       5
    C25       R7        1
    C25       R13       4
    C25       R14       4
    C25       R25       1
    C25       R27       1
    C26       R9        1
    C26       R26       2
    C26       R29       2
    C26       R30       6
    C26       R31       2
    C26       R32       2
    C27       R15       1
    C27       R29       1
    C27       R30       1
    C27       R34       1
    C28       R10       1
    C28       R30       1
    C28       R32       1
    C28       R34       1
    C29       R11       1
    C29       R30       1
    C29       R31       1
    C29       R34       1
    C30       R0        1
    C30       R24       3
    C30       R26       1
    C30       R28       1
    C30       R31       5
    C31       R8        1
    C31       R23       3
    C31       R26       1
    C31       R28       1
    C31       R32       5
    C32       R0        1
    C32       R7        3
    C32       R8        1
    C32       R14       1
    C32       R28       1
    C32       R33       5
    C33       R28       2
    C33       R29       1
    C33       R31       1
    C33       R32       1
    C33       R33       1
    C33       R34       6
    C34       R10       1
    C34       R11       1
    C34       R15       1
    C34       R33       1
    C34       R34       1
RHS
    RHS_V     R0        1
    RHS_V     R1        1
    RHS_V     R2        1
    RHS_V     R3        1
    RHS_V     R4        1
    RHS_V     R5        1
    RHS_V     R6        1
    RHS_V     R7        1
    RHS_V     R8        1
    RHS_V     R9        1
    RHS_V     R10       1
    RHS_V     R11       1
    RHS_V     R12       1
    RHS_V     R13       1
    RHS_V     R14       1
    RHS_V     R15       1
    RHS_V     R16       1
    RHS_V     R17       1
    RHS_V     R18       1
    RHS_V     R19       1
    RHS_V     R20       1
    RHS_V     R21       1
    RHS_V     R22       1
    RHS_V     R23       1
    RHS_V     R24       1
    RHS_V     R25       1
    RHS_V     R26       1
    RHS_V     R27       1
    RHS_V     R28       1
    RHS_V     R29       1
    RHS_V     R30       1
    RHS_V     R31       1
    RHS_V     R32       1
    RHS_V     R33       1
    RHS_V     R34       1
BOUNDS
 UP BOUND     C0        1
 UP BOUND     C1        1
 UP BOUND     C2        1
 UP BOUND     C3        1
 UP BOUND     C4        1
 UP BOUND     C5        1
 UP BOUND     C6        1
 UP BOUND     C7        1
 UP BOUND     C8        1
 UP BOUND     C9        1
 FX BOUND     C10       0
 UP BOUND     C11       1
 UP BOUND     C12       1
 UP BOUND     C13       1
 UP BOUND     C14       1
 UP BOUND     C15       1
 UP BOUND     C16       1
 UP BOUND     C17       1
 UP BOUND     C18       1
 UP BOUND     C19       1
 UP BOUND     C20       1
 UP BOUND     C21       1
 UP BOUND     C22       1
 UP BOUND     C23       1
 UP BOUND     C24       1
 UP BOUND     C25       1
 UP BOUND     C26       1
 UP BOUND     C27       1
 UP BOUND     C28       1
 UP BOUND     C29       1
 UP BOUND     C30       1
 UP BOUND     C31       1
 UP BOUND     C32       1
 UP BOUND     C33       1
 FX BOUND     C34       0
ENDATA
